401455
710939
506302
298669
109992
222184
813144
553915
810201
662715
27379
934606
144830
754260
808740
476335
262798
338735
175002
454334
14715
847458
28011
615007
779540
807705
160586
889346
995467
684972
445141
383310
316752
733210
747403
781866
148315
529509
498203
250023
560905
667593
768279
877005
243294
780314
112904
982529
802665
104505
890714
720720
336325
81650
715320
114138
32123
15798
389555
219165
466565
340016
552091
840413
188334
864709
910000
257646
829013
604205
670130
649758
130192
331497
421717
742337
525164
234912
520209
65177
712531
80922
685077
973986
228039
884824
178075
615672
984394
887949
953559
397862
739808
135549
875977
501836
66988
704177
843506
340012
